c FILE: i080-132

c SOURCE: From steinlib

c DESCRIPTION: Steinlib instance with 80 nodes and 160 edges.

p edge 80 160
e 1 6
e 1 28
e 1 39
e 1 41
e 1 46
e 1 49
e 1 67
e 1 76
e 1 79
e 2 19
e 2 51
e 2 65
e 3 4
e 3 49
e 3 53
e 3 56
e 4 8
e 4 10
e 4 16
e 4 27
e 4 28
e 4 44
e 4 62
e 4 68
e 5 9
e 5 21
e 5 43
e 5 67
e 5 75
e 5 80
e 6 42
e 6 68
e 7 28
e 7 32
e 7 53
e 7 61
e 8 9
e 8 53
e 9 30
e 9 49
e 10 55
e 10 58
e 10 67
e 10 76
e 11 53
e 11 56
e 12 45
e 12 47
e 12 54
e 13 31
e 13 50
e 14 21
e 14 32
e 14 38
e 14 40
e 15 34
e 15 37
e 15 42
e 15 49
e 15 73
e 16 22
e 16 31
e 16 68
e 17 30
e 17 35
e 17 41
e 17 54
e 18 34
e 18 50
e 18 55
e 18 62
e 18 78
e 19 34
e 20 24
e 20 32
e 20 50
e 20 52
e 20 56
e 20 78
e 21 37
e 21 38
e 21 39
e 21 65
e 23 51
e 23 58
e 23 60
e 23 61
e 23 67
e 23 70
e 24 42
e 24 57
e 25 40
e 26 64
e 26 75
e 26 78
e 27 42
e 27 69
e 27 79
e 28 69
e 28 77
e 28 79
e 29 44
e 30 38
e 30 39
e 30 71
e 30 74
e 31 37
e 31 51
e 31 65
e 31 79
e 33 75
e 35 48
e 35 56
e 35 67
e 36 45
e 36 72
e 37 43
e 37 57
e 37 68
e 37 69
e 38 45
e 39 44
e 39 58
e 39 63
e 39 74
e 40 45
e 40 56
e 40 68
e 40 79
e 41 78
e 42 58
e 42 62
e 43 45
e 44 75
e 46 54
e 47 55
e 48 52
e 50 51
e 50 65
e 51 52
e 51 59
e 52 78
e 52 79
e 53 66
e 54 69
e 55 59
e 56 62
e 56 65
e 56 68
e 58 64
e 59 63
e 60 66
e 61 80
e 65 78
e 68 78
e 69 78
e 70 72
e 72 76
e 72 80
e 75 77
